NAME : S-G-150-18.2071.tour
COMMENT : Length = 2071
COMMENT : Found by LKH [Keld Helsgaun] Thu May 17 23:18:21 2018
TYPE : TOUR
DIMENSION : 31
TOUR_SECTION
1
14
3
2
9
13
22
25
27
4
8
11
6
10
31
17
23
26
19
20
18
30
29
28
24
21
5
12
16
15
7
-1
EOF
